mixintcount/benchmarks/random_v2l/5_5_3548.smt2
(set-logic QF_LIA)
(set-info :ran/ran2.smt2)
(set-info :smt-lib-version 2.0)
(declare-fun x1 () Int)
(declare-fun x2 () Int)
(declare-fun x3 () Int)
(declare-fun x4 () Int)
(declare-fun x5 () Int)
(assert (<= (+ (* 9 x1) (* 1 x2) (* (- 5) x3) (* (- 2) x4) (* (- 7) x5) ) (- 2197)))
(assert (<= (+ (* 9 x1) (* 3 x2) (* (- 6) x3) (* 9 x4) (* (- 6) x5) ) (- 1167)))
(assert (<= (+ (* 10 x1) (* 4 x2) (* (- 7) x3) (* 7 x4) (* (- 2) x5) ) 928))
(assert (<= (+ (* 4 x1) (* 3 x2) (* (- 1) x3) (* 2 x4) (* 4 x5) ) 3146))
(assert (<= (+ (* (- 7) x1) (* 5 x2) (* 0 x3) (* 8 x4) (* 3 x5) ) (- 1410)))
(assert (<= (+ (* (- 10) x1) (* (- 1) x2) (* (- 10) x3) (* (- 4) x4) (* 6 x5) ) 464))
(assert (<= (+ (* (- 7) x1) (* 4 x2) (* 5 x3) (* (- 5) x4) (* 2 x5) ) (- 2622)))
(assert (<= (+ (* 8 x1) (* (- 1) x2) (* 0 x3) (* 9 x4) (* (- 5) x5) ) 2400))
(assert (<= (+ (* 9 x1) (* 7 x2) (* (- 2) x3) (* (- 3) x4) (* (- 4) x5) ) (- 504)))
(assert (<= (+ (* 10 x1) (* (- 1) x2) (* 7 x3) (* (- 2) x4) (* (- 6) x5) ) 2818))
(assert (<= (+ (* 1 x1) (* 0 x2) (* 0 x3) (* 0 x4) (* 0 x5) ) 3548))
(assert (<= (+ (* (- 1) x1) (* 0 x2) (* 0 x3) (* 0 x4) (* 0 x5) ) 3548))
(assert (<= (+ (* 0 x1) (* 1 x2) (* 0 x3) (* 0 x4) (* 0 x5) ) 3548))
(assert (<= (+ (* 0 x1) (* (- 1) x2) (* 0 x3) (* 0 x4) (* 0 x5) ) 3548))
(assert (<= (+ (* 0 x1) (* 0 x2) (* 1 x3) (* 0 x4) (* 0 x5) ) 3548))
(assert (<= (+ (* 0 x1) (* 0 x2) (* (- 1) x3) (* 0 x4) (* 0 x5) ) 3548))
(assert (<= (+ (* 0 x1) (* 0 x2) (* 0 x3) (* 1 x4) (* 0 x5) ) 3548))
(assert (<= (+ (* 0 x1) (* 0 x2) (* 0 x3) (* (- 1) x4) (* 0 x5) ) 3548))
(assert (<= (+ (* 0 x1) (* 0 x2) (* 0 x3) (* 0 x4) (* 1 x5) ) 3548))
(assert (<= (+ (* 0 x1) (* 0 x2) (* 0 x3) (* 0 x4) (* (- 1) x5) ) 3548))
