mixintcount/benchmarks/random_v2l/5_5_3548.in
20 7
#	x1	x2	x3	x4	x5;		0 = Real; 1 = Integer
	1	1	1	1	1
1	9	1	-5	-2	-7	-2197
1	9	3	-6	9	-6	-1167
1	10	4	-7	7	-2	928
1	4	3	-1	2	4	3146
1	-7	5	0	8	3	-1410
1	-10	-1	-10	-4	6	464
1	-7	4	5	-5	2	-2622
1	8	-1	0	9	-5	2400
1	9	7	-2	-3	-4	-504
1	10	-1	7	-2	-6	2818
1	1	0	0	0	0	3548
1	-1	0	0	0	0	3548
1	0	1	0	0	0	3548
1	0	-1	0	0	0	3548
1	0	0	1	0	0	3548
1	0	0	-1	0	0	3548
1	0	0	0	1	0	3548
1	0	0	0	-1	0	3548
1	0	0	0	0	1	3548
1	0	0	0	0	-1	3548
